NAME : Problem-6-10-A
TYPE : HVRP
DIMENSION : 11
EDGE_WEIGHT_TYPE : EUC_2D

NODE_COORD_SECTION
1 20 20
3 49 49
4 52 64
6 40 30
7 21 47
9 31 62
11 51 21
13 31 32
17 52 41
19 17 33
21 57 58

DEMAND_SECTION
1 0
3 30
4 16
6 21
7 15
9 23
11 5
13 29
17 15
19 41
21 28

VEHICLE_TYPES
# id capacity fixed_cost var_cost
A 60  1000 1 
B 80  1500 1 
C 150 3000 1 
END_VEHICLE_TYPES

DEPOT_SECTION
1
-1
EOF
